Set parameter TSPort to value 51199
Set parameter TokenServer to value "open-license1.lanl.gov"
Set parameter TimeLimit to value 8192
Set parameter Threads to value 1
Gurobi Optimizer version 10.0.3 build v10.0.3rc0 (linux64)

CPU model: Intel(R) Xeon(R) CPU E5-2695 v4 @ 2.10GHz, instruction set [SSE2|AVX|AVX2]
Thread count: 36 physical cores, 72 logical processors, using up to 1 threads

Optimize a model with 0 rows, 2897 columns and 0 nonzeros
Model fingerprint: 0xc20d8367
Model has 13437 quadratic objective terms
Variable types: 0 continuous, 2897 integer (2897 binary)
Coefficient statistics:
  Matrix range     [0e+00, 0e+00]
  Objective range  [2e+00, 3e+01]
  QObjective range [8e+00, 8e+00]
  Bounds range     [1e+00, 1e+00]
  RHS range        [0e+00, 0e+00]
Found heuristic solution: objective 0.0000000
Found heuristic solution: objective -4874.000000
Found heuristic solution: objective -17870.00000
Found heuristic solution: objective -17922.00000
Presolve removed 0 rows and 4 columns (presolve time = 6s) ...
Presolve removed 0 rows and 4 columns
Presolve time: 6.10s
Presolved: 13433 rows, 16326 columns, 40299 nonzeros
Variable types: 0 continuous, 16326 integer (16326 binary)

Root simplex log...

Iteration    Objective       Primal Inf.    Dual Inf.      Time
       0   -2.6924000e+04   5.202000e+03   0.000000e+00      9s
    3604   -2.5254000e+04   1.017000e+03   0.000000e+00     10s
    4011   -2.5171000e+04   0.000000e+00   0.000000e+00     10s

Root relaxation: objective -2.517100e+04, 4011 iterations, 0.92 seconds (0.03 work units)
Total elapsed time = 10.33s

    Nodes    |    Current Node    |     Objective Bounds      |     Work
 Expl Unexpl |  Obj  Depth IntInf | Incumbent    BestBd   Gap | It/Node Time

     0     0 -25171.000    0 2893 -17922.000 -25171.000  40.4%     -   12s
     0     0 -23525.000    0 3708 -17922.000 -23525.000  31.3%     -   23s
     0     0 -23309.333    0 3832 -17922.000 -23309.333  30.1%     -   26s
     0     0 -23297.333    0 3842 -17922.000 -23297.333  30.0%     -   27s
     0     0 -23149.667    0 3925 -17922.000 -23149.667  29.2%     -   35s
     0     0 -23149.667    0 3897 -17922.000 -23149.667  29.2%     -   42s
     0     2 -23149.667    0 3892 -17922.000 -23149.667  29.2%     -   57s
    10    12 -23098.667    5 3922 -17922.000 -23138.667  29.1%   362   60s
    28    30 -23008.667   14 4024 -17922.000 -23138.667  29.1%   183   65s
    45    47 -22928.667   23 4100 -17922.000 -23138.667  29.1%   144   70s
    63    65 -22840.667   32 4189 -17922.000 -23138.667  29.1%   125   75s
    80    82 -22769.000   40 4255 -17922.000 -23138.667  29.1%   113   80s
    98   100 -22683.000   49 4352 -17922.000 -23138.667  29.1%   108   85s
   118   120 -22590.000   59 4456 -17922.000 -23138.667  29.1%  99.3   90s
   137   139 -22494.000   69 4522 -17922.000 -23138.667  29.1%  93.2   95s
   156   158 -22411.000   78 4620 -17922.000 -23138.667  29.1%  91.6  100s
   173   175 -22333.000   87 4642 -17922.000 -23138.667  29.1%  89.9  105s
   188   190 -22281.000   94 4648 -17922.000 -23138.667  29.1%  92.4  110s
   206   208 -22198.000  103 4675 -17922.000 -23138.667  29.1%  91.5  115s
   227   229 -22099.667  114 4746 -17922.000 -23138.667  29.1%  89.0  120s
   245   247 -22026.667  123 4765 -17922.000 -23138.667  29.1%  87.7  125s
   265   267 -21940.667  133 4813 -17922.000 -23138.667  29.1%  86.6  130s
   285   287 -21850.667  143 4872 -17922.000 -23138.667  29.1%  86.0  135s
   304   306 -21774.500  152 4891 -17922.000 -23138.667  29.1%  85.1  140s
   324   326 -21692.500  162 4902 -17922.000 -23138.667  29.1%  84.5  145s
   343   345 -21604.500  172 4960 -17922.000 -23138.667  29.1%  83.8  150s
   362   364 -21535.500  181 5039 -17922.000 -23138.667  29.1%  82.7  155s
   380   382 -21462.500  190 5093 -17922.000 -23138.667  29.1%  82.0  160s
   401   403 -21358.500  201 5200 -17922.000 -23138.667  29.1%  81.6  165s
   422   424 -21264.500  211 5254 -17922.000 -23138.667  29.1%  80.9  170s
   440   442 -21194.500  220 5287 -17922.000 -23138.667  29.1%  79.9  175s
   459   461 -21113.500  230 5312 -17922.000 -23138.667  29.1%  79.5  180s
   474   476 -21069.500  237 5325 -17922.000 -23138.667  29.1%  78.8  185s
   491   493 -20999.500  246 5356 -17922.000 -23138.667  29.1%  79.1  190s
   511   513 -20925.500  256 5371 -17922.000 -23138.667  29.1%  79.0  195s
   527   529 -20871.500  264 5364 -17922.000 -23138.667  29.1%  78.9  200s
   540   542 -20842.500  270 5379 -17922.000 -23138.667  29.1%  79.0  205s
   556   558 -20784.500  278 5392 -17922.000 -23138.667  29.1%  79.3  210s
   567   569 -20739.500  284 5401 -17922.000 -23138.667  29.1%  79.0  215s
   589   591 -20671.500  295 5437 -17922.000 -23138.667  29.1%  78.0  220s
   602   604 -20629.500  301 5442 -17922.000 -23138.667  29.1%  78.6  225s
   623   625 -20542.500  312 5463 -17922.000 -23138.667  29.1%  77.6  230s
   642   644 -20475.500  321 5473 -17922.000 -23138.667  29.1%  77.3  235s
   656   658 -20418.500  328 5477 -17922.000 -23138.667  29.1%  77.1  240s
   672   674 -20364.500  336 5523 -17922.000 -23138.667  29.1%  76.9  245s
   689   691 -20296.500  345 5520 -17922.000 -23138.667  29.1%  76.3  250s
   706   708 -20244.500  353 5527 -17922.000 -23138.667  29.1%  75.7  255s
   726   728 -20171.500  363 5540 -17922.000 -23138.667  29.1%  75.2  260s
   741   743 -20116.500  371 5559 -17922.000 -23138.667  29.1%  74.7  265s
   756   758 -20077.500  378 5566 -17922.000 -23138.667  29.1%  74.7  271s
   770   772 -20031.500  385 5569 -17922.000 -23138.667  29.1%  74.7  275s
   787   789 -19976.500  394 5584 -17922.000 -23138.667  29.1%  74.7  280s
   810   812 -19899.500  406 5609 -17922.000 -23138.667  29.1%  74.6  286s
   825   827 -19855.500  413 5607 -17922.000 -23138.667  29.1%  74.4  290s
   837   839 -19821.500  419 5624 -17922.000 -23138.667  29.1%  74.2  303s
   845   847 -19797.500  423 5617 -17922.000 -23138.667  29.1%  73.8  305s
   862   864 -19735.500  432 5635 -17922.000 -23138.667  29.1%  73.3  310s
   864   866 -19724.500  433 5635 -17922.000 -23138.667  29.1%  73.2  339s
   866   868 -19714.500  434 5641 -17922.000 -23138.667  29.1%  73.2  340s
   884   886 -19655.500  443 5645 -17922.000 -23138.667  29.1%  72.8  345s
   902   904 -19589.500  452 5650 -17922.000 -23138.667  29.1%  72.6  350s
   909   911 -19584.500  455 5629 -17922.000 -23138.667  29.1%  72.3  379s
   911   913 -19579.500  456 5628 -17922.000 -23138.667  29.1%  72.3  380s
   933   935 -19524.500  467 5612 -17922.000 -23138.667  29.1%  71.7  385s
   957   959 -19441.500  480 5602 -17922.000 -23138.667  29.1%  71.0  390s
   977   979 -19364.500  490 5609 -17922.000 -23138.667  29.1%  70.5  395s
   998  1000 -19305.500  500 5599 -17922.000 -23138.667  29.1%  70.3  400s
  1020  1022 -19237.500  511 5608 -17922.000 -23138.667  29.1%  69.8  405s
  1042  1044 -19176.500  522 5617 -17922.000 -23138.667  29.1%  69.2  410s
  1066  1068 -19113.500  534 5617 -17922.000 -23138.667  29.1%  68.8  415s
  1090  1092 -19048.500  546 5614 -17922.000 -23138.667  29.1%  68.2  420s
  1112  1114 -18989.500  557 5596 -17922.000 -23138.667  29.1%  67.8  425s
  1134  1136 -18950.500  568 5611 -17922.000 -23138.667  29.1%  67.3  430s
H 1144  1144                    -17924.00000 -23138.667  29.1%  67.0  432s
  1155  1157 -18916.500  579 5603 -17924.000 -23138.667  29.1%  66.8  435s
  1179  1181 -18899.500  591 5543 -17924.000 -23138.667  29.1%  66.3  440s
  1197  1199 -18852.500  600 5518 -17924.000 -23138.667  29.1%  66.2  445s
  1219  1221 -18792.500  611 5482 -17924.000 -23138.667  29.1%  65.9  450s
  1220  1222 -18789.500  612 5495 -17924.000 -23138.667  29.1%  65.9  457s
  1230  1232 -18772.500  617 5467 -17924.000 -23138.667  29.1%  65.6  460s
  1252  1254 -18708.500  628 5458 -17924.000 -23138.667  29.1%  65.2  465s
H 1274  1274                    -17928.00000 -23138.667  29.1%  64.7  469s
  1276  1278 -18657.500  640 5435 -17928.000 -23138.667  29.1%  64.7  470s
  1300  1302 -18591.500  653 5449 -17928.000 -23138.667  29.1%  64.4  475s
  1321  1323 -18545.500  663 5427 -17928.000 -23138.667  29.1%  64.0  480s
  1346  1348 -18490.000  676 5299 -17928.000 -23138.667  29.1%  63.5  485s
H 1352  1352                    -17936.00000 -23138.667  29.0%  63.3  487s
  1366  1368 -18454.500  686 5242 -17936.000 -23138.667  29.0%  63.0  490s
  1390  1392 -18398.500  698 5206 -17936.000 -23138.667  29.0%  62.6  495s
  1412  1414 -18353.500  709 5214 -17936.000 -23138.667  29.0%  62.2  500s
H 1430  1430                    -17940.00000 -23138.667  29.0%  61.8  504s
  1434  1436 -18298.000  720 5215 -17940.000 -23138.667  29.0%  61.8  505s
  1451  1453 -18259.000  729 5177 -17940.000 -23138.667  29.0%  61.5  530s
  1470  1472 -18219.000  739 5135 -17940.000 -23138.667  29.0%  61.1  535s
  1491  1493 -18176.000  749 5108 -17940.000 -23138.667  29.0%  60.8  540s
H 1508  1508                    -17950.00000 -23138.667  28.9%  60.5  544s
  1512  1514 -18137.000  760 5086 -17950.000 -23138.667  28.9%  60.4  545s
  1534  1536 -18091.500  771 5072 -17950.000 -23138.667  28.9%  60.1  550s
H 1560  1560                    -17954.00000 -23138.667  28.9%  59.5  555s
H 1586  1586                    -17958.00000 -23138.667  28.8%  59.1  560s
  1610  1608     cutoff  812      -17958.000 -23138.667  28.8%  58.7  565s
H 1615  1605                    -17970.00000 -23138.667  28.8%  58.6  566s
  1623  1602 -18528.500  667 6715 -17970.000 -23138.667  28.8%  58.4  599s
  1625  1603 -22081.667  117 2892 -17970.000 -23138.667  28.8%  58.3  627s
  1626  1604 -20400.500  331 3708 -17970.000 -23138.667  28.8%  58.3  634s
  1627  1605 -18093.500  773 4360 -17970.000 -22414.017  24.7%  58.2  657s
  1628  1605 -20198.500  360 4739 -17970.000 -21989.741  22.4%  58.2  687s
  1629  1606 -18414.500  695 4801 -17970.000 -21909.650  21.9%  58.2  705s
  1630  1607 -20101.500  374 4843 -17970.000 -21894.450  21.8%  58.1  710s
  1633  1609 -21891.516    4 4891 -17970.000 -21891.516  21.8%  58.0  715s
  1636  1611 -19377.500  489 4892 -17970.000 -21891.461  21.8%  57.9  727s
  1637  1611 -21490.990  103 5374 -17970.000 -21490.990  19.6%  57.9  893s
  1638  1612 -19143.500  529 5821 -17970.000 -21365.129  18.9%  57.8 1111s
  1639  1613 -21328.877  134 6030 -17970.000 -21328.877  18.7%  57.8 1232s
  1640  1613 -18799.500  610 6087 -17970.000 -21320.579  18.6%  57.8 1291s
  1641  1614 -19502.500  471 6138 -17970.000 -21316.995  18.6%  57.7 1309s
  1642  1615 -20959.500  253 6226 -17970.000 -21315.205  18.6%  57.7 1324s
  1643  1615 -21141.500  227 6237 -17970.000 -21314.550  18.6%  57.7 1330s
  1644  1616 -19096.500  539 6270 -17970.000 -21314.090  18.6%  57.6 1337s
  1645  1617 -18050.500  786 6268 -17970.000 -21313.668  18.6%  57.6 1341s
  1647  1618 -20729.500  286 6272 -17970.000 -21313.595  18.6%  57.5 1345s
  1648  1619 -19937.500  402 6286 -17970.000 -21313.594  18.6%  57.5 1361s
  1649  1619 -19827.500  419 6810 -17970.000 -20990.914  16.8%  57.4 2210s
  1650  1620 -20889.960  197 7217 -17970.000 -20889.960  16.2%  57.4 3055s
  1651  1621 -18137.000  761 7442 -17970.000 -20862.452  16.1%  57.4 3603s
  1652  1621 -18946.500  570 7602 -17970.000 -20853.931  16.0%  57.3 3780s
  1653  1622 -18916.500  580 7687 -17970.000 -20851.201  16.0%  57.3 3863s
  1654  1623 -19639.500  446 7721 -17970.000 -20850.019  16.0%  57.3 3915s
  1655  1623 -18925.500  576 7807 -17970.000 -20849.244  16.0%  57.2 3960s
  1656  1624 -20741.500  284 7850 -17970.000 -20848.872  16.0%  57.2 3982s
  1657  1625 -20848.677  111 7866 -17970.000 -20848.677  16.0%  57.2 4002s
  1658  1625 -19272.500  506 7896 -17970.000 -20848.618  16.0%  57.1 4017s
  1659  1626 -18281.000  725 7884 -17970.000 -20848.554  16.0%  57.1 4028s
  1660  1627 -20848.545  171 7931 -17970.000 -20848.545  16.0%  57.1 4034s
  1661  1627 -18029.500  791 7930 -17970.000 -20848.544  16.0%  57.0 4057s
  1662  1628 -19836.500  417 8348 -17970.000 -20623.523  14.8%  57.0 5738s
  1663  1629 -20370.500  336 8822 -17970.000 -20543.423  14.3%  57.0 7209s
  1664  1629 -20513.173  131 9134 -17970.000 -20513.173  14.2%  56.9 7958s

Cutting planes:
  Gomory: 129
  MIR: 503
  Flow cover: 3189
  Zero half: 1829
  RLT: 532
  BQP: 745

Explored 1664 nodes (615249 simplex iterations) in 8192.03 seconds (702.16 work units)
Thread count was 1 (of 72 available processors)

Solution count 10: -17970 -17958 -17954 ... -17870

Time limit reached
Best objective -1.797000000000e+04, best bound -2.051200000000e+04, gap 14.1458%

User-callback calls 46843, time in user-callback 5.35 sec

BQP_SOLUTION, 2897, 13437, -6236.000000, 8192.036191, -1, 1, 1, -1, 1, -1, 1, -1, 1, -1, 1, -1, 1, -1, 1, -1, -1, -1, 1, -1, 1, 1, -1, 1, -1, -1, 1, 1, -1, -1, -1, -1, 1, 1, 1, -1, -1, 1, -1, 1, -1, -1, -1, 1, 1, -1, -1, -1, 1, -1, -1, -1, -1, 1, -1, 1, 1, -1, -1, 1, 1, -1, 1, -1, -1, -1, 1, -1, -1, -1, 1, 1, 1, -1, -1, -1, 1, 1, -1, -1, -1, 1, 1, 1, 1, -1, -1, 1, 1, -1, 1, -1, 1, -1, -1, 1, -1, -1, 1, 1, -1, -1, -1, 1, 1, -1, -1, -1, 1, -1, 1, -1, -1, 1, 1, 1, 1, -1, -1, 1, 1, 1, -1, 1, -1, 1, 1, -1, 1, -1, -1, 1, 1, -1, -1, -1, 1, 1, 1, -1, 1, -1, -1, -1, -1, -1, 1, 1, 1, 1, -1, 1, 1, -1, 1, 1, -1, 1, 1, 1, 1, 1, -1, 1, -1, -1, 1, 1, 1, 1, 1, 1, -1, -1, 1, -1, 1, -1, 1, 1, 1, 1, 1, -1, 1, 1, -1, 1, -1, 1, 1, 1, 1, 1, -1, 1, 1, 1, 1, -1, 1, 1, -1, 1, -1, -1, -1, 1, 1, -1, 1, 1, 1, 1, 1, -1, -1, 1, 1, -1, -1, 1, -1, 1, 1, -1, 1, 1, -1, 1, 1, 1, -1, 1, 1, 1, 1, 1, -1, 1, 1, -1, -1, 1, -1, -1, 1, 1, 1, 1, -1, 1, 1, 1, 1, -1, 1, 1, 1, 1, 1, -1, 1, 1, 1, -1, -1, 1, 1, 1, 1, -1, -1, 1, -1, 1, 1, 1, 1, 1, -1, 1, -1, 1, 1, 1, 1, 1, 1, -1, 1, -1, 1, 1, -1, -1, 1, -1, 1, 1, -1, -1, 1, 1, -1, 1, 1, -1, 1, 1, -1, -1, 1, -1, 1, 1, -1, 1, -1, 1, 1, 1, -1, 1, -1, 1, 1, -1, 1, 1, 1, 1, 1, -1, -1, -1, 1, 1, -1, 1, 1, 1, 1, 1, -1, -1, -1, 1, 1, -1, 1, 1, 1, 1, -1, 1, -1, 1, 1, 1, -1, 1, -1, 1, 1, 1, -1, -1, 1, -1, 1, -1, 1, 1, 1, 1, -1, 1, 1, -1, 1, 1, -1, -1, -1, 1, 1, -1, -1, -1, 1, -1, 1, 1, -1, 1, 1, 1, -1, -1, -1, 1, 1, -1, -1, 1, 1, 1, 1, -1, 1, -1, -1, 1, -1, 1, 1, 1, 1, -1, 1, -1, -1, -1, 1, -1, -1, 1, 1, 1, -1, 1, -1, 1, 1, -1, 1, -1, 1, -1, 1, -1, 1, 1, -1, 1, 1, 1, -1, 1, -1, 1, -1, 1, 1, 1, 1, 1, 1, -1, -1, -1, 1, -1, 1, 1, -1, 1, -1, 1, -1, 1, 1, 1, -1, 1, 1, 1, 1, -1, 1, -1, -1, -1, 1, -1, 1, 1, 1, 1, -1, 1, 1, -1, -1, -1, 1, -1, 1, 1, -1, -1, 1, -1, -1, 1, 1, 1, 1, 1, 1, 1, -1, -1, -1, -1, -1, 1, 1, 1, 1, 1, 1, -1, 1, -1, -1, -1, 1, -1, 1, 1, 1, -1, -1, 1, -1, 1, -1, 1, 1, 1, 1, 1, 1, -1, 1, -1, 1, 1, 1, 1, 1, 1, 1, -1, -1, 1, -1, 1, -1, 1, 1, 1, 1, -1, 1, -1, 1, -1, 1, 1, -1, 1, -1, 1, 1, -1, -1, 1, -1, -1, 1, 1, -1, 1, 1, 1, -1, -1, 1, -1, 1, 1, 1, 1, 1, -1, 1, 1, -1, 1, -1, -1, 1, -1, 1, -1, -1, 1, -1, -1, 1, -1, -1, 1, 1, 1, -1, 1, 1, 1, -1, -1, 1, -1, -1, -1, 1, 1, -1, 1, 1, -1, 1, 1, -1, 1, -1, -1, 1, -1, -1, -1, -1, 1, 1, -1, 1, -1, 1, -1, 1, 1, 1, -1, 1, 1, -1, 1, -1, 1, -1, 1, 1, -1, 1, -1, 1, -1, -1, -1, 1, 1, -1, 1, -1, 1, 1, 1, -1, -1, -1, -1, 1, -1, -1, 1, -1, 1, -1, 1, -1, 1, 1, 1, -1, 1, -1, -1, -1, 1, -1, -1, 1, 1, 1, -1, -1, 1, -1, 1, 1, 1, -1, -1, 1, 1, 1, -1, 1, -1, 1, -1, -1, -1, -1, 1, 1, 1, -1, -1, -1, 1, 1, -1, -1, 1, 1, 1, -1, -1, 1, -1, 1, -1, 1, -1, -1, 1, 1, -1, -1, -1, -1, 1, 1, 1, -1, -1, 1, -1, 1, 1, -1, 1, 1, -1, 1, 1, -1, -1, 1, 1, -1, -1, 1, -1, 1, 1, 1, -1, -1, 1, 1, -1, 1, -1, 1, -1, 1, -1, 1, 1, 1, -1, -1, 1, -1, 1, 1, 1, -1, -1, 1, 1, -1, -1, -1, -1, 1, 1, -1, -1, 1, 1, 1, 1, -1, 1, -1, -1, -1, -1, 1, -1, -1, 1, -1, 1, -1, 1, 1, 1, -1, 1, -1, -1, 1, 1, -1, 1, 1, -1, -1, 1, -1, 1, -1, 1, -1, -1, 1, -1, 1, -1, -1, -1, 1, 1, 1, -1, 1, 1, 1, -1, 1, 1, -1, -1, 1, 1, -1, 1, -1, 1, 1, -1, 1, 1, -1, 1, 1, -1, -1, 1, 1, -1, 1, 1, 1, -1, 1, 1, -1, 1, 1, 1, -1, 1, 1, 1, -1, 1, 1, -1, 1, 1, -1, 1, 1, 1, 1, -1, 1, -1, 1, 1, 1, 1, -1, 1, 1, 1, -1, 1, 1, -1, 1, -1, 1, -1, 1, 1, -1, -1, 1, -1, 1, -1, 1, -1, 1, 1, 1, 1, -1, 1, -1, -1, 1, 1, -1, 1, 1, 1, -1, -1, -1, -1, -1, 1, 1, -1, 1, 1, 1, 1, -1, 1, -1, 1, -1, 1, 1, 1, 1, 1, 1, -1, 1, -1, 1, -1, 1, -1, -1, 1, 1, -1, -1, 1, -1, -1, -1, 1, -1, 1, -1, -1, 1, -1, -1, -1, -1, -1, 1, 1, 1, 1, 1, 1, -1, 1, -1, -1, 1, 1, 1, 1, -1, 1, 1, -1, -1, -1, -1, -1, 1, 1, -1, -1, -1, -1, 1, 1, -1, 1, -1, 1, 1, -1, 1, -1, -1, 1, -1, -1, -1, -1, -1, 1, -1, -1, -1, 1, -1, 1, 1, -1, -1, 1, -1, 1, -1, -1, 1, 1, -1, -1, 1, -1, 1, -1, 1, 1, -1, 1, -1, -1, 1, -1, -1, 1, -1, -1, -1, -1, 1, -1, -1, -1, -1, -1, 1, 1, -1, -1, 1, -1, 1, -1, 1, 1, -1, -1, 1, -1, 1, -1, -1, -1, -1, 1, -1, -1, 1, 1, -1, 1, -1, 1, 1, -1, 1, -1, -1, -1, 1, -1, -1, -1, 1, 1, -1, 1, 1, -1, -1, 1, -1, 1, -1, -1, 1, -1, 1, 1, -1, -1, 1, -1, 1, -1, 1, 1, -1, 1, 1, -1, -1, 1, 1, 1, -1, 1, 1, -1, 1, -1, 1, -1, -1, 1, -1, 1, 1, 1, -1, -1, -1, 1, -1, 1, -1, 1, 1, 1, -1, 1, 1, -1, -1, 1, 1, 1, 1, -1, 1, -1, -1, 1, -1, -1, 1, 1, -1, 1, 1, 1, -1, 1, 1, -1, 1, 1, 1, 1, 1, -1, 1, -1, 1, 1, -1, 1, 1, -1, -1, 1, 1, 1, -1, -1, 1, -1, -1, 1, 1, -1, -1, 1, 1, -1, 1, 1, -1, 1, -1, 1, -1, 1, 1, 1, -1, 1, 1, 1, 1, 1, -1, 1, -1, -1, 1, -1, 1, 1, -1, 1, 1, -1, 1, -1, -1, 1, -1, -1, 1, 1, 1, 1, -1, 1, -1, 1, 1, 1, -1, 1, 1, 1, 1, 1, 1, -1, 1, 1, -1, 1, 1, 1, -1, 1, 1, -1, -1, -1, 1, -1, 1, -1, 1, -1, 1, -1, -1, -1, -1, 1, 1, 1, 1, 1, 1, 1, -1, 1, -1, 1, 1, 1, -1, 1, 1, 1, -1, -1, 1, -1, -1, 1, 1, -1, -1, 1, 1, 1, 1, 1, 1, 1, -1, 1, -1, 1, 1, 1, 1, -1, 1, -1, -1, 1, 1, -1, -1, 1, 1, 1, 1, -1, -1, -1, 1, -1, -1, 1, 1, 1, -1, -1, 1, -1, -1, -1, 1, -1, -1, 1, -1, 1, -1, 1, -1, -1, 1, 1, -1, 1, 1, 1, -1, 1, -1, 1, -1, -1, 1, 1, -1, 1, 1, -1, 1, -1, -1, 1, -1, 1, -1, -1, 1, 1, 1, 1, -1, -1, -1, -1, 1, -1, 1, -1, 1, -1, -1, 1, 1, -1, 1, 1, -1, -1, 1, 1, -1, 1, -1, -1, 1, 1, -1, 1, 1, -1, 1, -1, 1, -1, -1, -1, -1, 1, -1, -1, 1, -1, 1, 1, 1, 1, -1, -1, 1, -1, 1, -1, 1, 1, 1, 1, -1, 1, 1, -1, 1, 1, -1, 1, -1, 1, 1, -1, 1, -1, 1, 1, -1, -1, -1, 1, 1, -1, 1, -1, 1, -1, 1, -1, 1, -1, 1, 1, -1, -1, 1, -1, 1, 1, 1, -1, 1, -1, 1, 1, 1, -1, 1, -1, 1, 1, -1, 1, -1, 1, 1, 1, -1, -1, -1, 1, 1, -1, 1, -1, 1, 1, -1, -1, 1, -1, 1, 1, -1, 1, 1, 1, 1, 1, -1, -1, 1, 1, 1, -1, 1, -1, 1, 1, 1, -1, -1, 1, 1, 1, -1, 1, -1, 1, 1, -1, -1, -1, -1, 1, -1, 1, -1, 1, 1, 1, -1, -1, 1, 1, 1, -1, 1, 1, -1, 1, 1, -1, -1, -1, 1, 1, -1, 1, 1, 1, 1, 1, -1, -1, -1, 1, 1, -1, 1, -1, 1, 1, 1, -1, -1, 1, 1, 1, 1, -1, 1, 1, 1, 1, 1, -1, -1, 1, -1, -1, -1, 1, -1, 1, -1, 1, -1, 1, -1, 1, -1, 1, -1, -1, 1, 1, 1, -1, -1, 1, 1, 1, 1, 1, -1, 1, -1, 1, 1, -1, -1, 1, 1, -1, 1, -1, 1, 1, -1, 1, -1, -1, 1, 1, 1, 1, -1, 1, -1, 1, -1, 1, -1, 1, 1, -1, 1, 1, -1, 1, -1, 1, -1, -1, -1, 1, 1, 1, -1, 1, 1, 1, -1, 1, -1, 1, -1, 1, -1, -1, 1, -1, -1, -1, 1, -1, -1, -1, 1, 1, -1, 1, 1, -1, 1, 1, 1, -1, 1, -1, 1, -1, 1, 1, 1, -1, -1, -1, 1, 1, -1, -1, 1, 1, -1, -1, 1, -1, -1, 1, -1, -1, -1, -1, 1, -1, -1, 1, -1, -1, 1, 1, 1, -1, 1, 1, -1, -1, 1, -1, -1, -1, 1, -1, -1, -1, 1, -1, -1, 1, -1, -1, 1, -1, -1, 1, -1, 1, -1, 1, 1, -1, 1, 1, -1, 1, -1, -1, 1, 1, -1, 1, -1, 1, -1, 1, -1, -1, 1, 1, -1, 1, 1, -1, -1, 1, 1, -1, -1, -1, 1, -1, 1, 1, -1, 1, -1, 1, -1, 1, -1, 1, 1, -1, -1, -1, -1, -1, -1, -1, 1, -1, -1, -1, 1, -1, 1, -1, 1, -1, -1, 1, -1, -1, -1, 1, -1, 1, -1, -1, 1, 1, 1, -1, 1, 1, 1, 1, -1, -1, 1, 1, -1, 1, -1, 1, -1, 1, -1, 1, -1, -1, 1, -1, 1, -1, 1, -1, 1, -1, -1, -1, -1, 1, 1, 1, -1, 1, -1, 1, -1, -1, -1, -1, 1, 1, 1, 1, 1, -1, 1, -1, 1, -1, -1, 1, 1, -1, -1, -1, 1, -1, 1, -1, -1, 1, -1, 1, -1, 1, -1, 1, -1, -1, -1, -1, 1, 1, 1, -1, -1, -1, 1, -1, 1, -1, -1, 1, 1, 1, -1, -1, -1, 1, -1, -1, 1, -1, -1, 1, 1, -1, 1, -1, 1, -1, 1, -1, 1, 1, 1, -1, 1, -1, -1, 1, -1, 1, -1, 1, 1, 1, 1, 1, -1, -1, 1, -1, 1, -1, -1, -1, 1, 1, -1, -1, -1, 1, -1, 1, 1, -1, 1, 1, -1, 1, -1, -1, -1, -1, 1, 1, -1, -1, 1, 1, 1, -1, 1, 1, -1, -1, 1, -1, 1, 1, -1, 1, -1, 1, 1, -1, -1, -1, 1, 1, 1, -1, 1, -1, -1, 1, -1, -1, 1, -1, 1, 1, -1, 1, -1, 1, 1, -1, -1, -1, 1, 1, 1, -1, 1, -1, -1, 1, -1, -1, 1, 1, -1, 1, 1, 1, -1, -1, -1, 1, -1, -1, 1, -1, -1, 1, 1, 1, -1, 1, -1, -1, 1, 1, 1, -1, -1, 1, -1, -1, 1, -1, 1, 1, -1, 1, 1, -1, 1, -1, 1, 1, -1, -1, 1, 1, 1, -1, -1, 1, -1, 1, 1, 1, -1, 1, 1, 1, -1, -1, 1, -1, 1, 1, -1, -1, 1, 1, 1, -1, -1, 1, 1, -1, 1, -1, -1, 1, -1, 1, -1, -1, -1, 1, -1, 1, -1, -1, 1, 1, 1, -1, -1, 1, -1, -1, 1, -1, -1, 1, 1, 1, 1, -1, 1, 1, -1, 1, 1, -1, 1, 1, 1, -1, -1, 1, -1, -1, 1, 1, -1, 1, 1, 1, -1, -1, -1, 1, -1, 1, -1, -1, 1, 1, 1, -1, -1, 1, 1, -1, -1, 1, -1, 1, -1, 1, 1, 1, -1, -1, -1, -1, -1, 1, -1, -1, 1, -1, 1, -1, 1, -1, 1, -1, -1, -1, 1, 1, 1, -1, -1, 1, -1, -1, -1, 1, -1, 1, -1, -1, 1, -1, -1, -1, -1, -1, 1, -1, 1, 1, -1, 1, -1, 1, -1, 1, -1, 1, -1, 1, 1, -1, -1, 1, -1, -1, -1, 1, -1, -1, 1, 1, 1, -1, -1, -1, -1, -1, 1, 1, -1, 1, 1, -1, -1, -1, -1, -1, 1, 1, 1, 1, 1, -1, 1, -1, -1, -1, -1, -1, 1, -1, -1, 1, 1, 1, -1, 1, -1, -1, -1, 1, 1, 1, 1, -1, 1, -1, -1, 1, -1, 1, 1, 1, -1, -1, 1, 1, -1, -1, 1, -1, 1, 1, 1, 1, 1, 1, -1, -1, 1, 1, -1, -1, -1, 1, -1, 1, 1, 1, 1, 1, -1, -1, 1, 1, 1, -1, 1, 1, -1, -1, 1, -1, 1, -1, 1, -1, 1, 1, 1, -1, 1, 1, 1, -1, 1, 1, -1, 1, 1, 1, -1, -1, 1, -1, -1, 1, 1, 1, 1, 1, 1, -1, 1, 1, 1, -1, 1, 1, 1, 1, 1, 1, -1, 1, 1, 1, -1, 1, 1, 1, -1, 1, 1, 1, -1, 1, 1, -1, 1, 1, 1, 1, -1, 1, -1, 1, 1, 1, -1, 1, -1, 1, 1, 1, 1, -1, -1, 1, 1, -1, -1, 1, 1, 1, -1, 1, -1, 1, -1, 1, 1, 1, 1, 1, 1, -1, 1, 1, 1, 1, -1, 1, -1, -1, -1, -1, -1, 1, -1, -1, 1, -1, 1, -1, 1, -1, 1, 1, -1, -1, -1, 1, 1, -1, 1, -1, -1, -1, -1, 1, -1, 1, 1, 1, 1, -1, -1, 1, -1, 1, 1, -1, 1, 1, -1, 1, -1, 1, -1, -1, -1, 1, -1, 1, -1, 1, -1, 1, -1, 1, -1, -1, 1, -1, 1, 1, 1, 1, -1, 1, -1, -1, -1, -1, -1, -1, 1, 1, 1, -1, 1, -1, -1, -1, 1, -1, 1, 1, -1, 1, 1, -1, -1, -1, -1, 1, -1, 1, 1, -1, 1, -1, -1, -1, 1, -1, 1, -1, -1, 1, -1, 1, 1, -1, -1, 1, -1, -1, 1, -1, 1, -1, 1, -1, 1, -1, 1, -1, 1, -1, -1, 1, -1, -1, 1, -1, -1, 1, -1, -1, -1, -1, 1, -1, 1, 1, 1, 1, -1, -1, -1, -1, 1, -1, -1, 1, 1, -1, 1, -1, -1, -1, 1, -1, 1, -1, 1, 1, -1, 1, 1, -1, -1, 1, 1, -1, -1, 1, 1, 1, 1, 1, 1, -1, 1, -1, 1, -1, -1, 1, -1, -1, 1, -1, -1, 1, -1, 1, -1, 1, 1, 1, -1, 1, 1, -1, 1, -1, 1, -1, -1, 1, -1, -1, 1, -1, -1, -1, -1, 1, -1, -1, 1, 1, -1, -1, 1, -1, -1, 1, -1, -1, 1, 1, 1, -1, 1, 1, -1, 1, 1, -1, -1, -1, 1, 1, -1, -1, 1, -1, -1, 1, 1, 1, -1, 1, 1, 1, -1, 1, 1, 1, 1, 1, -1, -1, 1, 1, 1, -1, -1, 1, 1, 1, 1, -1, 1, 1, 1, -1, -1, 1, 1, -1, 1, -1, -1, -1, 1, 1, -1, 1, 1, 1, -1, 1, -1, -1, 1, 1, 1, -1, -1, 1, 1, -1, 1, -1, 1, -1, -1, 1, -1, 1, -1, 1, -1, 1, 1, 1, 1, 1, 1, 1, -1, 1, 1, -1, 1, 1, 1, -1, -1, 1, -1, -1, -1, 1, -1, -1, -1, -1, 1, -1, 1, -1, 1, -1, 1, -1, 1, 1, 1, -1, -1, 1, 1, 1, -1, 1, -1, -1, -1, 1, -1, -1, 1, 1, 1, -1, 1, -1, 1, -1, 1, 1, -1, -1, 1, 1, -1, 1, 1, -1, 1, 1, -1, 1, 1, -1, 1, -1, 1, -1, -1, 1, 1, 1, -1, 1, -1, 1, -1, 1, 1, -1, -1, 1, -1, -1, 1, -1, 1, -1, 1, 1, -1
BQP_DATA, 2897, 13437, -6236.000000, -8778.000000, -17970.000000, -20512.000000, 8192.036191, 5650, 1664
